SCF
 SYSTEM = "Li3FeCl6"
Electronic minimization
 ENCUT = 400
 EDIFF = 1E-7
 LORBIT = 11
 LREAL = .FALSE.
 EDIFFG = -0.01
 NELMIN = 6
 NELM = 200
 IALGO = 48
 NSW = 0
# ISIF = 3
 IBRION = -1
 ISYM = 2
 PREC = L
 ISTART = 0
 ICHARG = 2
 TIME = 0.04

DOS
 ISMEAR = 0
 SMEAR = 0.1

Magnetism
 ISPIN = 2
 MAGMOM = 48*0 8*4 24*0

Mixer
  AMIX     = 0.2
  BMIX     = 0.00001
  AMIX_MAG = 0.8
  BMIX_MAG = 0.00001
 LWAVE =F
 LCHARG = T
