Li3FeCl6                                
   1.00000000000000     
    12.5183705207653091   -0.0028563448746302    0.0000009508111885
    -6.2616589276060708   10.8397987126059672    0.0000009508111887
    -0.0000009333818764   -0.0000016166648327   11.4013457417809914
  Cl Fe Li           
  48 8  24
Direct
  0.1578895449529643 -0.0058298607404517  0.1290768139091695
  0.0058418037282568  0.1637207126864772  0.1290426543806197
  0.8362299240037560  0.8420804764348043  0.1291230071785079
  0.8421104260470370  0.0058298607404517  0.8709231860908306
 -0.0058418037282568  0.8362792583135237  0.8709573456193803
  0.1637700469962451  0.1579194945651968  0.8708769928214921
  0.1637207126864779  0.0058418037282576  0.6290426543806197
 -0.0058298607404517  0.1578895449529636  0.6290768139091694
  0.8420804764348037  0.8362299240037558  0.6291230071785079
  0.8362792583135231 -0.0058418037282576  0.3709573456193803
  0.0058298607404517  0.8421104260470377  0.3709231860908304
  0.1579194945651975  0.1637700469962450  0.3708769928214922
  0.1578895449529643  0.4941701392595482  0.1290768139091695
  0.0058418037282568  0.6637207416864763  0.1290426543806197
  0.8362299240037560  0.3420805054348032  0.1291230071785079
  0.8421104260470370  0.5058298607404519  0.8709231860908306
 -0.0058418037282568  0.3362792873135227  0.8709573456193803
  0.1637700469962451  0.6579195235651957  0.8708769928214921
  0.1637207126864779  0.5058418037282576  0.6290426543806197
 -0.0058298607404517  0.6578895739529623  0.6290768139091694
  0.8420804764348037  0.3362299530037549  0.6291230071785079
  0.8362792583135231  0.4941581962717425  0.3709573456193803
  0.0058298607404517  0.3421104550470364  0.3709231860908304
  0.1579194945651975  0.6637700759962442  0.3708769928214922
  0.6578895739529630 -0.0058298607404517  0.1290768139091695
  0.5058418037282568  0.1637207126864772  0.1290426543806197
  0.3362299530037550  0.8420804764348043  0.1291230071785079
  0.3421104550470356  0.0058298607404517  0.8709231860908306
  0.4941581962717432  0.8362792583135237  0.8709573456193803
  0.6637700759962440  0.1579194945651968  0.8708769928214921
  0.6637207416864769  0.0058418037282576  0.6290426543806197
  0.4941701392595483  0.1578895449529636  0.6290768139091694
  0.3420805054348025  0.8362299240037558  0.6291230071785079
  0.3362792873135221 -0.0058418037282576  0.3709573456193803
  0.5058298607404514  0.8421104260470377  0.3709231860908304
  0.6579195235651963  0.1637700469962450  0.3708769928214922
  0.6578895739529630  0.4941701392595482  0.1290768139091695
  0.5058418037282568  0.6637207416864763  0.1290426543806197
  0.3362299530037550  0.3420805054348032  0.1291230071785079
  0.3421104550470356  0.5058298607404519  0.8709231860908306
  0.4941581962717432  0.3362792873135227  0.8709573456193803
  0.6637700759962440  0.6579195235651957  0.8708769928214921
  0.6637207416864769  0.5058418037282576  0.6290426543806197
  0.4941701392595483  0.6578895739529623  0.6290768139091694
  0.3420805054348025  0.3362299530037549  0.6291230071785079
  0.3362792873135221  0.4941581962717425  0.3709573456193803
  0.5058298607404514  0.3421104550470364  0.3709231860908304
  0.6579195235651963  0.6637700759962442  0.3708769928214922
 -0.0000045305298278  0.0000045305298278  0.2500000000000000
  0.0000045305298278 -0.0000045305298278  0.7500000000000000
 -0.0000045305298278  0.5000045305298276  0.2500000000000000
  0.0000045305298278  0.4999954694701723  0.7500000000000000
  0.4999954694701723  0.0000045305298278  0.2500000000000000
  0.5000045305298276 -0.0000045305298278  0.7500000000000000
  0.4999954694701723  0.5000045305298276  0.2500000000000000
  0.5000045305298276  0.4999954694701723  0.7500000000000000
  0.1666424755120730  0.3333052019502688 -0.0316264212414571
  0.8333574954879283  0.6666948270497303  0.0316264212414571
  0.6666241293173443  0.8333758706826556  0.2500000000000000
  0.1666947980497312  0.3333575244879269  0.5316264212414568
  0.3333758996826546  0.1666241003173454  0.7500000000000000
  0.8333051729502697  0.6666425045120717  0.4683735787585429
  0.1666424755120730  0.8333051729502697 -0.0316264212414571
  0.8333574954879283  0.1666947980497312  0.0316264212414571
  0.6666241293173443  0.3333758996826546  0.2500000000000000
  0.1666947980497312  0.8333574954879283  0.5316264212414568
  0.3333758996826546  0.6666241293173444  0.7500000000000000
  0.8333051729502697  0.1666424755120730  0.4683735787585429
  0.6666425045120717  0.3333052019502688 -0.0316264212414571
  0.3333575244879269  0.6666948270497303  0.0316264212414571
  0.1666241003173454  0.8333758706826556  0.2500000000000000
  0.6666948270497303  0.3333575244879269  0.5316264212414568
  0.8333758706826557  0.1666241003173454  0.7500000000000000
  0.3333052019502688  0.6666425045120717  0.4683735787585429
  0.6666425045120717  0.8333051729502697 -0.0316264212414571
  0.3333575244879269  0.1666947980497312  0.0316264212414571
  0.1666241003173454  0.3333758996826546  0.2500000000000000
  0.6666948270497303  0.8333574954879283  0.5316264212414568
  0.8333758706826557  0.6666241293173444  0.7500000000000000
  0.3333052019502688  0.1666424755120730  0.4683735787585429
