Cs Pb Br O                              
   1.00000000000000     
    17.9658851623999993    0.0000000000000000    0.0000000000000000
     0.0000000000000000   17.9658851623999993    0.0000000000000000
     0.0000000000000000    0.0000000000000000   41.9203987121999972
   Cs   Pb   Br   O 
    27    36    99     2
Selective dynamics
Direct
  0.1666666716353404  0.1666666716353404  0.0714285746315824   F   F   F
  0.1666666716353404  0.4999999999888658  0.0714285746315824   F   F   F
  0.1666666716353404  0.8333333134808925  0.0714285746315824   F   F   F
  0.4999999999888658  0.1666666716353404  0.0714285746315824   F   F   F
  0.4999999999888658  0.4999999999888658  0.0714285746315824   F   F   F
  0.4999999999888658  0.8333333134808925  0.0714285746315824   F   F   F
  0.8333333134808925  0.1666666716353404  0.0714285746315824   F   F   F
  0.8333333134808925  0.4999999999888658  0.0714285746315824   F   F   F
  0.8333333134808925  0.8333333134808925  0.0714285746315824   F   F   F
  0.1666666716353404  0.1666666716353404  0.2142857164043548   F   F   F
  0.1666666716353404  0.4999999999888658  0.2142857164043548   F   F   F
  0.1666666716353404  0.8333333134808925  0.2142857164043548   F   F   F
  0.4999999999888658  0.1666666716353404  0.2142857164043548   F   F   F
  0.4999999999888658  0.4999999999888658  0.2142857164043548   F   F   F
  0.4999999999888658  0.8333333134808925  0.2142857164043548   F   F   F
  0.8333333134808925  0.1666666716353404  0.2142857164043548   F   F   F
  0.8333333134808925  0.4999999999888658  0.2142857164043548   F   F   F
  0.8333333134808925  0.8333333134808925  0.2142857164043548   F   F   F
  0.1668270128609421  0.1667788943443185  0.3654313801868199   T   T   T
  0.1668472452236074  0.4997446566059480  0.3655002736729784   T   T   T
  0.1666426431184789  0.8332941730550161  0.3654192877302407   T   T   T
  0.4999966510809557  0.1666018427978884  0.3653874944689619   T   T   T
  0.4998828690224144  0.4998263125205895  0.3654521725952904   T   T   T
  0.5000417636109162  0.8333683096765654  0.3654334883316963   T   T   T
  0.8333683501350819  0.1666368573009152  0.3654204343034664   T   T   T
  0.8334464821614773  0.5000286501931370  0.3654370596577294   T   T   T
  0.8333334699027404  0.8333235540053252  0.3654258478151178   T   T   T
  0.0000000000000000  0.0000000000000000  0.0000000000000000   F   F   F
  0.0000000000000000  0.3333333432706880  0.0000000000000000   F   F   F
  0.0000000000000000  0.6666666865413688  0.0000000000000000   F   F   F
  0.3333333432706880  0.0000000000000000  0.0000000000000000   F   F   F
  0.3333333432706880  0.3333333432706880  0.0000000000000000   F   F   F
  0.3333333432706880  0.6666666865413688  0.0000000000000000   F   F   F
  0.6666666865413688  0.0000000000000000  0.0000000000000000   F   F   F
  0.6666666865413688  0.3333333432706880  0.0000000000000000   F   F   F
  0.6666666865413688  0.6666666865413688  0.0000000000000000   F   F   F
  0.0000000000000000  0.0000000000000000  0.1428571492393047   F   F   F
  0.0000000000000000  0.3333333432706880  0.1428571492393047   F   F   F
  0.0000000000000000  0.6666666865413688  0.1428571492393047   F   F   F
  0.3333333432706880  0.0000000000000000  0.1428571492393047   F   F   F
  0.3333333432706880  0.3333333432706880  0.1428571492393047   F   F   F
  0.3333333432706880  0.6666666865413688  0.1428571492393047   F   F   F
  0.6666666865413688  0.0000000000000000  0.1428571492393047   F   F   F
  0.6666666865413688  0.3333333432706880  0.1428571492393047   F   F   F
  0.6666666865413688  0.6666666865413688  0.1428571492393047   F   F   F
  0.0000016603561903  0.9999985640800020  0.2848884342971445   T   T   T
  0.0000329145166234  0.3333329613762857  0.2848922423844300   T   T   T
  0.0000056456315534  0.6666656368660639  0.2848908967047237   T   T   T
  0.3333271424828723  0.9999803387096122  0.2848867258182111   T   T   T
  0.3333526596109877  0.3333185436214094  0.2850935908628429   T   T   T
  0.3333323514678668  0.6666322842189061  0.2848944834468412   T   T   T
  0.6666771980644626  0.9999940840981338  0.2848878826125514   T   T   T
  0.6666855465806307  0.3333379801901017  0.2848887807411415   T   T   T
  0.6666673122065774  0.6666638196412649  0.2848913583963295   T   T   T
  0.0000252028008347  0.9999971730662125  0.4261399988954508   T   T   T
  0.0002411552925494  0.3333170677678439  0.4261901392604415   T   T   T
  0.0000246174968765  0.6666524149753172  0.4261440350833325   T   T   T
  0.3333499574409160  0.9998008042064725  0.4261425581162115   T   T   T
  0.3336631485497463  0.3329836054619335  0.4268506774962191   T   T   T
  0.3333388277927298  0.6664140408284567  0.4261851376888828   T   T   T
  0.6666903542047677  0.9999862628481040  0.4261458171577743   T   T   T
  0.6668553482605830  0.3333059120667912  0.4261369032484268   T   T   T
  0.6666704750040040  0.6666426873572107  0.4261377432661533   T   T   T
  0.0000000000000000  0.1666666716353404  0.0000000000000000   F   F   F
  0.0000000000000000  0.4999999999888658  0.0000000000000000   F   F   F
  0.0000000000000000  0.8333333134808925  0.0000000000000000   F   F   F
  0.3333333432706880  0.1666666716353404  0.0000000000000000   F   F   F
  0.3333333432706880  0.4999999999888658  0.0000000000000000   F   F   F
  0.3333333432706880  0.8333333134808925  0.0000000000000000   F   F   F
  0.6666666865413688  0.1666666716353404  0.0000000000000000   F   F   F
  0.6666666865413688  0.4999999999888658  0.0000000000000000   F   F   F
  0.6666666865413688  0.8333333134808925  0.0000000000000000   F   F   F
  0.1666666716353404  0.0000000000000000  0.0000000000000000   F   F   F
  0.1666666716353404  0.3333333432706880  0.0000000000000000   F   F   F
  0.1666666716353404  0.6666666865413688  0.0000000000000000   F   F   F
  0.4999999999888658  0.0000000000000000  0.0000000000000000   F   F   F
  0.4999999999888658  0.3333333432706880  0.0000000000000000   F   F   F
  0.4999999999888658  0.6666666865413688  0.0000000000000000   F   F   F
  0.8333333134808925  0.0000000000000000  0.0000000000000000   F   F   F
  0.8333333134808925  0.3333333432706880  0.0000000000000000   F   F   F
  0.8333333134808925  0.6666666865413688  0.0000000000000000   F   F   F
  0.0000000000000000  0.0000000000000000  0.0714285746315824   F   F   F
  0.0000000000000000  0.3333333432706880  0.0714285746315824   F   F   F
  0.0000000000000000  0.6666666865413688  0.0714285746315824   F   F   F
  0.3333333432706880  0.0000000000000000  0.0714285746315824   F   F   F
  0.3333333432706880  0.3333333432706880  0.0714285746315824   F   F   F
  0.3333333432706880  0.6666666865413688  0.0714285746315824   F   F   F
  0.6666666865413688  0.0000000000000000  0.0714285746315824   F   F   F
  0.6666666865413688  0.3333333432706880  0.0714285746315824   F   F   F
  0.6666666865413688  0.6666666865413688  0.0714285746315824   F   F   F
  0.0000000000000000  0.1666666716353404  0.1428571492393047   F   F   F
  0.0000000000000000  0.4999999999888658  0.1428571492393047   F   F   F
  0.0000000000000000  0.8333333134808925  0.1428571492393047   F   F   F
  0.3333333432706880  0.1666666716353404  0.1428571492393047   F   F   F
  0.3333333432706880  0.4999999999888658  0.1428571492393047   F   F   F
  0.3333333432706880  0.8333333134808925  0.1428571492393047   F   F   F
  0.6666666865413688  0.1666666716353404  0.1428571492393047   F   F   F
  0.6666666865413688  0.4999999999888658  0.1428571492393047   F   F   F
  0.6666666865413688  0.8333333134808925  0.1428571492393047   F   F   F
  0.1666666716353404  0.0000000000000000  0.1428571492393047   F   F   F
  0.1666666716353404  0.3333333432706880  0.1428571492393047   F   F   F
  0.1666666716353404  0.6666666865413688  0.1428571492393047   F   F   F
  0.4999999999888658  0.0000000000000000  0.1428571492393047   F   F   F
  0.4999999999888658  0.3333333432706880  0.1428571492393047   F   F   F
  0.4999999999888658  0.6666666865413688  0.1428571492393047   F   F   F
  0.8333333134808925  0.0000000000000000  0.1428571492393047   F   F   F
  0.8333333134808925  0.3333333432706880  0.1428571492393047   F   F   F
  0.8333333134808925  0.6666666865413688  0.1428571492393047   F   F   F
  0.0000000000000000  0.0000000000000000  0.2142857164043548   F   F   F
  0.0000000000000000  0.3333333432706880  0.2142857164043548   F   F   F
  0.0000000000000000  0.6666666865413688  0.2142857164043548   F   F   F
  0.3333333432706880  0.0000000000000000  0.2142857164043548   F   F   F
  0.3333333432706880  0.3333333432706880  0.2142857164043548   F   F   F
  0.3333333432706880  0.6666666865413688  0.2142857164043548   F   F   F
  0.6666666865413688  0.0000000000000000  0.2142857164043548   F   F   F
  0.6666666865413688  0.3333333432706880  0.2142857164043548   F   F   F
  0.6666666865413688  0.6666666865413688  0.2142857164043548   F   F   F
  0.9999960085854056  0.1666768328101398  0.2841223840647089   T   T   T
  0.9999894674938830  0.4999881012822982  0.2841254421707546   T   T   T
  0.0000045064039114  0.8333341950536450  0.2841192923953386   T   T   T
  0.3333180730343770  0.1666838632311567  0.2841301473063211   T   T   T
  0.3333293362043932  0.4999335919781416  0.2841040041652434   T   T   T
  0.3333135315558025  0.8333037236875924  0.2841249848863399   T   T   T
  0.6666876046856345  0.1666757624967445  0.2841219510764859   T   T   T
  0.6666817186594898  0.4999894627709693  0.2841167987745692   T   T   T
  0.6666869264503674  0.8333336234148945  0.2841180303053932   T   T   T
  0.1666772403286387  0.9999969776307083  0.2841168842364681   T   T   T
  0.1667326957649706  0.3333029219020531  0.2841043991575916   T   T   T
  0.1666792770277539  0.6667019652157578  0.2841183794358102   T   T   T
  0.4999917381164281  0.0000020199170834  0.2841296529258983   T   T   T
  0.4999826743517559  0.3333140868458742  0.2841313251257418   T   T   T
  0.4999901968592866  0.6666851427314029  0.2841228053491420   T   T   T
  0.8333342901893204  0.0000036678175661  0.2841177312676280   T   T   T
  0.8333621759624918  0.3333063780764078  0.2841229680843540   T   T   T
  0.8333338249589204  0.6666871489325246  0.2841189852589778   T   T   T
  0.9999946154742787  0.9999994800500005  0.3584624631278146   T   T   T
  0.0004022462321984  0.3333331682422056  0.3585020249065494   T   T   T
  0.9999953678628515  0.6666791914257573  0.3584667075964418   T   T   T
  0.3333182685807472  0.9997174126063584  0.3584646568033278   T   T   T
  0.3332794448342966  0.3333183945658220  0.3586557402067356   T   T   T
  0.3332924398750379  0.6662521288599521  0.3584996285718915   T   T   T
  0.6666824303464409  0.9999918039060276  0.3584662049833796   T   T   T
  0.6669831968388280  0.3333071516985413  0.3584612427791640   T   T   T
  0.6667023686222890  0.6667087829088203  0.3584621893259765   T   T   T
  0.0000641909903791  0.1666774518552003  0.4245567234008618   T   T   T
  0.0000599410623963  0.4999680724939068  0.4245627159314651   T   T   T
  0.0000101445424363  0.8333255211308028  0.4245580420860051   T   T   T
  0.3335013827313986  0.1664890189580461  0.4245165735102390   T   T   T
  0.3334716098795596  0.4995781646156914  0.4247263735298148   T   T   T
  0.3333374084271767  0.8330804091731920  0.4245199083612974   T   T   T
  0.6667698752433893  0.1666658850919731  0.4245584424886104   T   T   T
  0.6667471029868040  0.4999606926290525  0.4245477571420722   T   T   T
  0.6666861415320682  0.8333201476855479  0.4245691970814036   T   T   T
  0.1667056203875816  0.9999333182188010  0.4245537148589094   T   T   T
  0.1670709240470174  0.3331651921044241  0.4247319000482364   T   T   T
  0.1666987037252383  0.6666182861190890  0.4245665957388454   T   T   T
  0.5000000792670178  0.9999101552942022  0.4245542285369268   T   T   T
  0.5001630061431754  0.3331253993922587  0.4245036921922676   T   T   T
  0.4999886352948195  0.6666137719064551  0.4245507668329225   T   T   T
  0.8333489341328217  0.9999928829625020  0.4245605130175534   T   T   T
  0.8335753719386858  0.3333043339370576  0.4245246058114134   T   T   T
  0.8333437510820758  0.6666700341665077  0.4245670625787383   T   T   T
  0.3295939443776561  0.3372959473632804  0.5327968659816520   T   T   T
  0.3114138323373297  0.3562687006752796  0.5053921492523656   T   T   T
 
  0.00000000E+00  0.00000000E+00  0.00000000E+00
  0.00000000E+00  0.00000000E+00  0.00000000E+00
  0.00000000E+00  0.00000000E+00  0.00000000E+00
  0.00000000E+00  0.00000000E+00  0.00000000E+00
  0.00000000E+00  0.00000000E+00  0.00000000E+00
  0.00000000E+00  0.00000000E+00  0.00000000E+00
  0.00000000E+00  0.00000000E+00  0.00000000E+00
  0.00000000E+00  0.00000000E+00  0.00000000E+00
  0.00000000E+00  0.00000000E+00  0.00000000E+00
  0.00000000E+00  0.00000000E+00  0.00000000E+00
  0.00000000E+00  0.00000000E+00  0.00000000E+00
  0.00000000E+00  0.00000000E+00  0.00000000E+00
  0.00000000E+00  0.00000000E+00  0.00000000E+00
  0.00000000E+00  0.00000000E+00  0.00000000E+00
  0.00000000E+00  0.00000000E+00  0.00000000E+00
  0.00000000E+00  0.00000000E+00  0.00000000E+00
  0.00000000E+00  0.00000000E+00  0.00000000E+00
  0.00000000E+00  0.00000000E+00  0.00000000E+00
  0.00000000E+00  0.00000000E+00  0.00000000E+00
  0.00000000E+00  0.00000000E+00  0.00000000E+00
  0.00000000E+00  0.00000000E+00  0.00000000E+00
  0.00000000E+00  0.00000000E+00  0.00000000E+00
  0.00000000E+00  0.00000000E+00  0.00000000E+00
  0.00000000E+00  0.00000000E+00  0.00000000E+00
  0.00000000E+00  0.00000000E+00  0.00000000E+00
  0.00000000E+00  0.00000000E+00  0.00000000E+00
  0.00000000E+00  0.00000000E+00  0.00000000E+00
  0.00000000E+00  0.00000000E+00  0.00000000E+00
  0.00000000E+00  0.00000000E+00  0.00000000E+00
  0.00000000E+00  0.00000000E+00  0.00000000E+00
  0.00000000E+00  0.00000000E+00  0.00000000E+00
  0.00000000E+00  0.00000000E+00  0.00000000E+00
  0.00000000E+00  0.00000000E+00  0.00000000E+00
  0.00000000E+00  0.00000000E+00  0.00000000E+00
  0.00000000E+00  0.00000000E+00  0.00000000E+00
  0.00000000E+00  0.00000000E+00  0.00000000E+00
  0.00000000E+00  0.00000000E+00  0.00000000E+00
  0.00000000E+00  0.00000000E+00  0.00000000E+00
  0.00000000E+00  0.00000000E+00  0.00000000E+00
  0.00000000E+00  0.00000000E+00  0.00000000E+00
  0.00000000E+00  0.00000000E+00  0.00000000E+00
  0.00000000E+00  0.00000000E+00  0.00000000E+00
  0.00000000E+00  0.00000000E+00  0.00000000E+00
  0.00000000E+00  0.00000000E+00  0.00000000E+00
  0.00000000E+00  0.00000000E+00  0.00000000E+00
  0.00000000E+00  0.00000000E+00  0.00000000E+00
  0.00000000E+00  0.00000000E+00  0.00000000E+00
  0.00000000E+00  0.00000000E+00  0.00000000E+00
  0.00000000E+00  0.00000000E+00  0.00000000E+00
  0.00000000E+00  0.00000000E+00  0.00000000E+00
  0.00000000E+00  0.00000000E+00  0.00000000E+00
  0.00000000E+00  0.00000000E+00  0.00000000E+00
  0.00000000E+00  0.00000000E+00  0.00000000E+00
  0.00000000E+00  0.00000000E+00  0.00000000E+00
  0.00000000E+00  0.00000000E+00  0.00000000E+00
  0.00000000E+00  0.00000000E+00  0.00000000E+00
  0.00000000E+00  0.00000000E+00  0.00000000E+00
  0.00000000E+00  0.00000000E+00  0.00000000E+00
  0.00000000E+00  0.00000000E+00  0.00000000E+00
  0.00000000E+00  0.00000000E+00  0.00000000E+00
  0.00000000E+00  0.00000000E+00  0.00000000E+00
  0.00000000E+00  0.00000000E+00  0.00000000E+00
  0.00000000E+00  0.00000000E+00  0.00000000E+00
  0.00000000E+00  0.00000000E+00  0.00000000E+00
  0.00000000E+00  0.00000000E+00  0.00000000E+00
  0.00000000E+00  0.00000000E+00  0.00000000E+00
  0.00000000E+00  0.00000000E+00  0.00000000E+00
  0.00000000E+00  0.00000000E+00  0.00000000E+00
  0.00000000E+00  0.00000000E+00  0.00000000E+00
  0.00000000E+00  0.00000000E+00  0.00000000E+00
  0.00000000E+00  0.00000000E+00  0.00000000E+00
  0.00000000E+00  0.00000000E+00  0.00000000E+00
  0.00000000E+00  0.00000000E+00  0.00000000E+00
  0.00000000E+00  0.00000000E+00  0.00000000E+00
  0.00000000E+00  0.00000000E+00  0.00000000E+00
  0.00000000E+00  0.00000000E+00  0.00000000E+00
  0.00000000E+00  0.00000000E+00  0.00000000E+00
  0.00000000E+00  0.00000000E+00  0.00000000E+00
  0.00000000E+00  0.00000000E+00  0.00000000E+00
  0.00000000E+00  0.00000000E+00  0.00000000E+00
  0.00000000E+00  0.00000000E+00  0.00000000E+00
  0.00000000E+00  0.00000000E+00  0.00000000E+00
  0.00000000E+00  0.00000000E+00  0.00000000E+00
  0.00000000E+00  0.00000000E+00  0.00000000E+00
  0.00000000E+00  0.00000000E+00  0.00000000E+00
  0.00000000E+00  0.00000000E+00  0.00000000E+00
  0.00000000E+00  0.00000000E+00  0.00000000E+00
  0.00000000E+00  0.00000000E+00  0.00000000E+00
  0.00000000E+00  0.00000000E+00  0.00000000E+00
  0.00000000E+00  0.00000000E+00  0.00000000E+00
  0.00000000E+00  0.00000000E+00  0.00000000E+00
  0.00000000E+00  0.00000000E+00  0.00000000E+00
  0.00000000E+00  0.00000000E+00  0.00000000E+00
  0.00000000E+00  0.00000000E+00  0.00000000E+00
  0.00000000E+00  0.00000000E+00  0.00000000E+00
  0.00000000E+00  0.00000000E+00  0.00000000E+00
  0.00000000E+00  0.00000000E+00  0.00000000E+00
  0.00000000E+00  0.00000000E+00  0.00000000E+00
  0.00000000E+00  0.00000000E+00  0.00000000E+00
  0.00000000E+00  0.00000000E+00  0.00000000E+00
  0.00000000E+00  0.00000000E+00  0.00000000E+00
  0.00000000E+00  0.00000000E+00  0.00000000E+00
  0.00000000E+00  0.00000000E+00  0.00000000E+00
  0.00000000E+00  0.00000000E+00  0.00000000E+00
  0.00000000E+00  0.00000000E+00  0.00000000E+00
  0.00000000E+00  0.00000000E+00  0.00000000E+00
  0.00000000E+00  0.00000000E+00  0.00000000E+00
  0.00000000E+00  0.00000000E+00  0.00000000E+00
  0.00000000E+00  0.00000000E+00  0.00000000E+00
  0.00000000E+00  0.00000000E+00  0.00000000E+00
  0.00000000E+00  0.00000000E+00  0.00000000E+00
  0.00000000E+00  0.00000000E+00  0.00000000E+00
  0.00000000E+00  0.00000000E+00  0.00000000E+00
  0.00000000E+00  0.00000000E+00  0.00000000E+00
  0.00000000E+00  0.00000000E+00  0.00000000E+00
  0.00000000E+00  0.00000000E+00  0.00000000E+00
  0.00000000E+00  0.00000000E+00  0.00000000E+00
  0.00000000E+00  0.00000000E+00  0.00000000E+00
  0.00000000E+00  0.00000000E+00  0.00000000E+00
  0.00000000E+00  0.00000000E+00  0.00000000E+00
  0.00000000E+00  0.00000000E+00  0.00000000E+00
  0.00000000E+00  0.00000000E+00  0.00000000E+00
  0.00000000E+00  0.00000000E+00  0.00000000E+00
  0.00000000E+00  0.00000000E+00  0.00000000E+00
  0.00000000E+00  0.00000000E+00  0.00000000E+00
  0.00000000E+00  0.00000000E+00  0.00000000E+00
  0.00000000E+00  0.00000000E+00  0.00000000E+00
  0.00000000E+00  0.00000000E+00  0.00000000E+00
  0.00000000E+00  0.00000000E+00  0.00000000E+00
  0.00000000E+00  0.00000000E+00  0.00000000E+00
  0.00000000E+00  0.00000000E+00  0.00000000E+00
  0.00000000E+00  0.00000000E+00  0.00000000E+00
  0.00000000E+00  0.00000000E+00  0.00000000E+00
  0.00000000E+00  0.00000000E+00  0.00000000E+00
  0.00000000E+00  0.00000000E+00  0.00000000E+00
  0.00000000E+00  0.00000000E+00  0.00000000E+00
  0.00000000E+00  0.00000000E+00  0.00000000E+00
  0.00000000E+00  0.00000000E+00  0.00000000E+00
  0.00000000E+00  0.00000000E+00  0.00000000E+00
  0.00000000E+00  0.00000000E+00  0.00000000E+00
  0.00000000E+00  0.00000000E+00  0.00000000E+00
  0.00000000E+00  0.00000000E+00  0.00000000E+00
  0.00000000E+00  0.00000000E+00  0.00000000E+00
  0.00000000E+00  0.00000000E+00  0.00000000E+00
  0.00000000E+00  0.00000000E+00  0.00000000E+00
  0.00000000E+00  0.00000000E+00  0.00000000E+00
  0.00000000E+00  0.00000000E+00  0.00000000E+00
  0.00000000E+00  0.00000000E+00  0.00000000E+00
  0.00000000E+00  0.00000000E+00  0.00000000E+00
  0.00000000E+00  0.00000000E+00  0.00000000E+00
  0.00000000E+00  0.00000000E+00  0.00000000E+00
  0.00000000E+00  0.00000000E+00  0.00000000E+00
  0.00000000E+00  0.00000000E+00  0.00000000E+00
  0.00000000E+00  0.00000000E+00  0.00000000E+00
  0.00000000E+00  0.00000000E+00  0.00000000E+00
  0.00000000E+00  0.00000000E+00  0.00000000E+00
  0.00000000E+00  0.00000000E+00  0.00000000E+00
  0.00000000E+00  0.00000000E+00  0.00000000E+00
  0.00000000E+00  0.00000000E+00  0.00000000E+00
  0.00000000E+00  0.00000000E+00  0.00000000E+00
  0.00000000E+00  0.00000000E+00  0.00000000E+00
  0.00000000E+00  0.00000000E+00  0.00000000E+00
  0.00000000E+00  0.00000000E+00  0.00000000E+00
  0.00000000E+00  0.00000000E+00  0.00000000E+00
