Na0.67V0.5Ni0.5O1.925F0.15 (3*3*1 super 
   1.00000000000000     
     8.7847879227808523   -0.0207490858721202   -0.0363304642427275
    -4.4099839427855514    7.6269612012690171    0.0320091523739722
    -0.0451321239538697    0.0204933750121605   10.9149373187860608
   V    Ni   Na   O    F 
     9     9    12    35     1
Direct
 -0.0073423006849484 -0.0045074396816326  0.0046996158910805
  0.9862397293478847  0.0037323256575915  0.5094538991590284
 -0.0106315732149427  0.3262646911971483  0.0044244851288988
  0.0023459870058718  0.3508428021128580  0.4983860755258710
  0.0137505609740509  0.6709953405789097  0.9843234233486702
  0.9948932213114006  0.6731794183995874  0.5056594074336354
  0.3471926719747065 -0.0022135225648307  0.0003935546165209
  0.3511894115406562  0.0039575471276464  0.4897404573652828
  0.3495108142759833  0.3469398261391909  0.0067778346780446
  0.3327277354776156  0.3331152471471346  0.4913182546025381
  0.3401116250648353  0.6710401758295690  0.9993718715846226
  0.3390180927443944  0.6624310985393247  0.5008714575575346
  0.6657479360062415  0.9958791924747951  0.9946429197085408
  0.6623546277469742  0.9912361829815662  0.5026970745244643
  0.6666535128278788  0.3285692461267586  0.9908758167499297
  0.6615236307647121  0.3345752322695595  0.5026447060309889
  0.6641692968558193  0.6713773217771709 -0.0025958465445739
  0.6549775340027438  0.6621478001195059  0.5025759617963425
  0.2167241322687434  0.0999242208143347  0.2495125056688317
  0.8782346143598172  0.1017767322050701  0.2523151873324215
  0.1183262233522669  0.9173204078410798  0.7498970836929508
  0.2322900990390958  0.4761029746017776  0.2498546438482755
  0.1269330390435163  0.5489479683922807  0.7513660290140741
  0.7682916904698534  0.2178339867305979  0.7520577075180106
  0.5753613434239898  0.1369382056522027  0.2472662809937652
  0.4595783045743824  0.8815230867449407  0.7497718099750059
  0.6537417731695362  0.6547172436347414  0.2557790740819851
  0.3236387760725470  0.3156319054200385  0.7416374577064472
  0.0215416163607012  0.6782864806245457  0.2483353064235991
  0.6704563864319549  0.6829427062372542  0.7488637480977742
  0.1126586042079508  0.2210752209946185  0.1037766078621386
  0.9016837528652006  0.1123965350107092  0.5997394000099379
  0.8026539358101897  0.8992223047746939  0.4033331860760988
  0.9037376119065407  0.1184725822908026  0.9047162620681533
  0.1029150336098209  0.5620052922210622  0.0915544497564826
  0.8999975865067456  0.4409349058732941  0.6025933263335296
  0.7920596923390857  0.2231576508177437  0.4127804778665842
  0.9017683932291641  0.4475175258577231  0.8967281197707001
  0.1131100172397142  0.8830644584337477  0.0928696858372481
  0.9046672177966020  0.7988269703593198  0.6028450025415971
  0.8000207633345316  0.5712197621309163  0.4089373494937090
  0.8981061775343528  0.7733348413993283  0.9030936519893316
  0.4372186064330430  0.2227530824506533  0.0968214490201953
  0.2175072028816708  0.1097325627493657  0.5840833931865451
  0.1095374992770491  0.8922503510429955  0.4078955761152359
  0.2195209337774940  0.1125110480799595  0.9136521070091524
  0.4373876188012614  0.5351702148340971  0.1048424999881167
  0.1953581004679363  0.4250232158935202  0.5961095219764556
  0.1035115298967153  0.2217454884166582  0.4033030121908240
  0.2187028962645785  0.4270370057842083  0.9131706485693867
  0.4378267534330402  0.9026055438466166  0.1008887662259365
  0.2118795874522490  0.7813648425682224  0.5961181733310871
  0.0972222518782948  0.5449650433143494  0.4029559087115868
  0.2229119311874733  0.7864781201999647  0.8890882149970826
  0.7934920548528859  0.2290148499585591  0.0996385657213853
  0.5302997157210007  0.0962721382176417  0.5982779732737890
  0.4297439148480392  0.8942484031420785  0.3980097942243007
  0.5477266090334894  0.1094877882119753  0.8956464213461112
  0.5350368367402110  0.4321040413835679  0.5895032379927111
  0.4321496677478819  0.1977570309896863  0.3952579765153011
  0.5320449894721142  0.4361998359214216  0.9035375684354230
  0.7984488012388541  0.8917564867689280  0.1019929302079020
  0.5545030572562815  0.7775693231500876  0.5978951276893780
  0.4326783223321397  0.5393519315930358  0.3998416151434890
  0.5542515817412177  0.7748107436344293  0.9038837492688079
  0.7844703742968481  0.5573546655532612  0.1017004457437468
 
  0.00000000E+00  0.00000000E+00  0.00000000E+00
  0.00000000E+00  0.00000000E+00  0.00000000E+00
  0.00000000E+00  0.00000000E+00  0.00000000E+00
  0.00000000E+00  0.00000000E+00  0.00000000E+00
  0.00000000E+00  0.00000000E+00  0.00000000E+00
  0.00000000E+00  0.00000000E+00  0.00000000E+00
  0.00000000E+00  0.00000000E+00  0.00000000E+00
  0.00000000E+00  0.00000000E+00  0.00000000E+00
  0.00000000E+00  0.00000000E+00  0.00000000E+00
  0.00000000E+00  0.00000000E+00  0.00000000E+00
  0.00000000E+00  0.00000000E+00  0.00000000E+00
  0.00000000E+00  0.00000000E+00  0.00000000E+00
  0.00000000E+00  0.00000000E+00  0.00000000E+00
  0.00000000E+00  0.00000000E+00  0.00000000E+00
  0.00000000E+00  0.00000000E+00  0.00000000E+00
  0.00000000E+00  0.00000000E+00  0.00000000E+00
  0.00000000E+00  0.00000000E+00  0.00000000E+00
  0.00000000E+00  0.00000000E+00  0.00000000E+00
  0.00000000E+00  0.00000000E+00  0.00000000E+00
  0.00000000E+00  0.00000000E+00  0.00000000E+00
  0.00000000E+00  0.00000000E+00  0.00000000E+00
  0.00000000E+00  0.00000000E+00  0.00000000E+00
  0.00000000E+00  0.00000000E+00  0.00000000E+00
  0.00000000E+00  0.00000000E+00  0.00000000E+00
  0.00000000E+00  0.00000000E+00  0.00000000E+00
  0.00000000E+00  0.00000000E+00  0.00000000E+00
  0.00000000E+00  0.00000000E+00  0.00000000E+00
  0.00000000E+00  0.00000000E+00  0.00000000E+00
  0.00000000E+00  0.00000000E+00  0.00000000E+00
  0.00000000E+00  0.00000000E+00  0.00000000E+00
  0.00000000E+00  0.00000000E+00  0.00000000E+00
  0.00000000E+00  0.00000000E+00  0.00000000E+00
  0.00000000E+00  0.00000000E+00  0.00000000E+00
  0.00000000E+00  0.00000000E+00  0.00000000E+00
  0.00000000E+00  0.00000000E+00  0.00000000E+00
  0.00000000E+00  0.00000000E+00  0.00000000E+00
  0.00000000E+00  0.00000000E+00  0.00000000E+00
  0.00000000E+00  0.00000000E+00  0.00000000E+00
  0.00000000E+00  0.00000000E+00  0.00000000E+00
  0.00000000E+00  0.00000000E+00  0.00000000E+00
  0.00000000E+00  0.00000000E+00  0.00000000E+00
  0.00000000E+00  0.00000000E+00  0.00000000E+00
  0.00000000E+00  0.00000000E+00  0.00000000E+00
  0.00000000E+00  0.00000000E+00  0.00000000E+00
  0.00000000E+00  0.00000000E+00  0.00000000E+00
  0.00000000E+00  0.00000000E+00  0.00000000E+00
  0.00000000E+00  0.00000000E+00  0.00000000E+00
  0.00000000E+00  0.00000000E+00  0.00000000E+00
  0.00000000E+00  0.00000000E+00  0.00000000E+00
  0.00000000E+00  0.00000000E+00  0.00000000E+00
  0.00000000E+00  0.00000000E+00  0.00000000E+00
  0.00000000E+00  0.00000000E+00  0.00000000E+00
  0.00000000E+00  0.00000000E+00  0.00000000E+00
  0.00000000E+00  0.00000000E+00  0.00000000E+00
  0.00000000E+00  0.00000000E+00  0.00000000E+00
  0.00000000E+00  0.00000000E+00  0.00000000E+00
  0.00000000E+00  0.00000000E+00  0.00000000E+00
  0.00000000E+00  0.00000000E+00  0.00000000E+00
  0.00000000E+00  0.00000000E+00  0.00000000E+00
  0.00000000E+00  0.00000000E+00  0.00000000E+00
  0.00000000E+00  0.00000000E+00  0.00000000E+00
  0.00000000E+00  0.00000000E+00  0.00000000E+00
  0.00000000E+00  0.00000000E+00  0.00000000E+00
  0.00000000E+00  0.00000000E+00  0.00000000E+00
  0.00000000E+00  0.00000000E+00  0.00000000E+00
  0.00000000E+00  0.00000000E+00  0.00000000E+00
